'hugeuniform116'
150 100 100
150
148
145
145
143
138
136
136
135
132
131
130
129
128
128
127
126
125
125
123
122
121
120
120
118
118
118
117
116
115
113
112
108
108
108
108
106
104
103
103
102
98
94
92
91
89
87
86
86
85
83
83
81
79
79
79
79
78
78
75
71
69
68
68
67
67
67
64
62
59
58
58
56
55
53
51
51
51
49
46
42
42
42
41
41
37
36
35
30
29
26
26
26
22
17
14
13
13
11
11
